qe/outputs/qe/cbrdelay_obs_newl/T=6,eliminate=[I_0,I_1,I_2,I_3,I_4,I_5,L_5,C,lhs=B].smt2
; benchmark generated from python API
(set-info :status unknown)
(declare-fun S_1 () Real)
(declare-fun A_1 () Real)
(declare-fun L_1 () Real)
(declare-fun S_2 () Real)
(declare-fun L_2 () Real)
(declare-fun A_2 () Real)
(declare-fun S_4 () Real)
(declare-fun L_4 () Real)
(declare-fun A_4 () Real)
(declare-fun S_3 () Real)
(declare-fun A_3 () Real)
(declare-fun L_3 () Real)
(declare-fun L_0 () Real)
(declare-fun S_0 () Real)
(declare-fun A_0 () Real)
(declare-fun A_5 () Real)
(declare-fun S_5 () Real)
(declare-fun B () Real)
(assert
 (let (($x39 (>= L_0 0.0)))
 (let (($x781 (>= B 5.0)))
 (let ((?x1312 (* (- 1.0) S_0)))
 (let ((?x1718 (* 3.0 A_3)))
 (let ((?x1717 (* (- 3.0) L_3)))
 (let ((?x1716 (* 3.0 B)))
 (let ((?x6107 (* 3.0 L_4)))
 (let ((?x5459 (* (- 3.0) A_4)))
 (let ((?x1925 (* (/ 3.0 2.0) B)))
 (let ((?x4960 (* (/ 3.0 2.0) L_4)))
 (let ((?x4407 (* (- (/ 3.0 2.0)) A_4)))
 (let (($x86 (= L_4 L_3)))
 (let (($x129419 (or $x86 (<= (+ ?x4407 ?x4960 ?x1925 (* (/ 5.0 2.0) S_2) ?x1312) 0.0) (<= (+ ?x5459 ?x6107 ?x1716 ?x1717 ?x1718 S_2 ?x1312) 0.0))))
 (let ((?x921 (* 3.0 S_2)))
 (let ((?x1187 (* (- 2.0) A_1)))
 (let ((?x1148 (* 2.0 L_1)))
 (let ((?x443 (* (- 1.0) A_4)))
 (let ((?x435 (* (- 1.0) A_1)))
 (let ((?x311 (* (- 1.0) L_3)))
 (let (($x270072 (or $x86 (<= (+ ?x443 L_4 B ?x311 A_3 ?x435 S_2 L_1) 0.0) (<= (+ ?x443 L_4 ?x1148 ?x1187 B ?x921) 0.0))))
 (let ((?x3584 (* 4.0 B)))
 (let ((?x2263 (* 4.0 L_4)))
 (let ((?x2508 (* (- 4.0) A_4)))
 (let (($x68640 (<= (+ ?x5459 ?x6107 ?x1716 (* (- 1.0) A_0) (* 4.0 S_3) L_0) 0.0)))
 (let (($x71162 (<= (+ (* 3.0 S_5) ?x2508 ?x2263 (* (- 1.0) L_1) A_1 ?x3584) 0.0)))
 (let ((?x54729 (* (/ 1.0 4.0) S_0)))
 (let (($x54589 (<= (+ S_5 (* (- (/ 5.0 4.0)) A_4) (* (/ 5.0 4.0) L_4) ?x54729 (* (/ 5.0 4.0) B)) 0.0)))
 (let (($x31429 (<= (+ (* 2.0 S_5) ?x5459 ?x6107 A_2 (* (- 1.0) L_2) ?x1716) 0.0)))
 (let ((?x1686 (* 2.0 B)))
 (let ((?x1678 (* 2.0 L_4)))
 (let ((?x1683 (* (- 2.0) A_4)))
 (let (($x1688 (<= (+ S_5 ?x1683 ?x1678 ?x1686 ?x311 A_3) 0.0)))
 (let ((?x415 (* (- 1.0) S_3)))
 (let ((?x1969 (* (- 2.0) A_3)))
 (let ((?x1406 (* 2.0 L_3)))
 (let ((?x1697 (* (- 2.0) B)))
 (let ((?x1819 (* (- 2.0) L_4)))
 (let ((?x1721 (* 2.0 A_4)))
 (let ((?x277 (* (- 1.0) L_1)))
 (let ((?x440 (* (- 1.0) A_3)))
 (let ((?x268 (* (- 1.0) B)))
 (let ((?x328 (* (- 1.0) L_4)))
 (let (($x9069 (<= (+ A_4 ?x328 ?x268 ?x440 A_1 ?x415 L_3 ?x277) 0.0)))
 (let (($x2391 (<= (+ A_2 ?x415 (* (- 1.0) L_2)) 0.0)))
 (let ((?x32814 (* (/ 1.0 3.0) S_1)))
 (let ((?x3256 (* (/ 4.0 3.0) B)))
 (let (($x129204 (or $x86 $x1688 $x31429 (<= (+ S_5 (* (- (/ 4.0 3.0)) A_4) (* (/ 4.0 3.0) L_4) ?x3256 ?x32814) 0.0))))
 (let (($x267255 (or $x86 (= (+ ?x1683 ?x1678 ?x1718 ?x435 L_1 ?x1717 ?x268) 0.0) (not (<= 0.0 (+ ?x1683 ?x1678 ?x1718 ?x435 L_1 ?x1717 ?x268))))))
 (let ((?x51270 (+ ?x1683 ?x1678 ?x1718 ?x435 L_1 ?x1717 ?x268)))
 (let (($x123445 (<= 0.0 ?x51270)))
 (let ((?x1710 (* (- 2.0) L_3)))
 (let ((?x437 (* (- 1.0) A_2)))
 (let ((?x1711 (* 2.0 A_3)))
 (let (($x113473 (<= 0.0 (+ ?x443 L_4 ?x268 ?x1711 ?x437 L_2 ?x1710))))
 (let ((?x53685 (* 4.0 L_3)))
 (let ((?x53690 (* (- 4.0) A_3)))
 (let ((?x3935 (* (- 3.0) L_4)))
 (let ((?x5480 (* 3.0 A_4)))
 (let (($x50502 (<= (+ ?x5480 ?x3935 ?x53690 S_0 ?x53685 B) 0.0)))
 (let (($x76 (= L_3 L_2)))
 (let (($x60100 (<= (+ ?x1969 (* 2.0 A_2) (* (- 2.0) L_2) S_1 ?x1312 ?x1406 ?x1686) 0.0)))
 (let (($x110060 (not (<= 0.0 (+ ?x328 L_3)))))
 (let (($x132940 (or $x2391 $x9069 (<= (+ A_4 ?x268 ?x440 (* (- (/ 1.0 2.0)) S_3) (* (/ 1.0 2.0) S_0)) 0.0) $x110060)))
 (let ((?x35909 (+ (* (- (/ 2.0 3.0)) A_4) (* (/ 2.0 3.0) L_4) (* (/ 2.0 3.0) B) (* (/ 5.0 3.0) S_1) ?x1312)))
 (let (($x109663 (or $x86 (<= (+ ?x1683 ?x1678 ?x1686 ?x1710 ?x1711 S_1 ?x1312) 0.0) (<= ?x35909 0.0) (<= (+ ?x443 L_4 A_2 (* (- 1.0) L_2) S_1 ?x1312 B) 0.0))))
 (let (($x75990 (<= (+ S_5 ?x440 ?x437 L_3 S_0 L_2 B) 0.0)))
 (let ((?x1290 (* 2.0 L_2)))
 (let ((?x1065 (* (- 2.0) L_1)))
 (let ((?x1164 (* 2.0 A_1)))
 (let ((?x1289 (* (- 2.0) A_2)))
 (let (($x66 (= L_2 L_1)))
 (let (($x117459 (or $x66 (<= (+ S_5 ?x440 ?x1289 ?x1164 L_3 ?x1065 ?x1290 ?x1686) 0.0) $x75990)))
 (let ((?x1322 (* 4.0 L_2)))
 (let ((?x1321 (* (- 4.0) A_2)))
 (let ((?x1311 (* 3.0 A_1)))
 (let ((?x1313 (* (- 3.0) L_1)))
 (let (($x42842 (<= (+ S_5 ?x1313 ?x1311 ?x3584 ?x1321 ?x1322) 0.0)))
 (let ((?x43562 (* (/ 1.0 3.0) L_3)))
 (let ((?x5273 (* (/ 1.0 3.0) S_0)))
 (let ((?x43574 (* (- (/ 1.0 3.0)) A_3)))
 (let ((?x3074 (* (/ 1.0 3.0) B)))
 (let (($x110953 (<= (+ B ?x440 A_2 (* (- 1.0) L_2) L_3) (- 5.0))))
 (let (($x274470 (or $x76 $x110953 (<= (+ ?x3074 ?x43574 ?x5273 ?x43562) (- 5.0)) (<= (+ ?x277 A_1 B ?x440 L_3) (- 10.0)))))
 (let ((?x2007 (* 2.0 L_0)))
 (let ((?x5513 (* 2.0 S_1)))
 (let ((?x294 (* (- 1.0) L_2)))
 (let ((?x2006 (* (- 2.0) A_0)))
 (let ((?x1341 (* (- 1.0) A_0)))
 (let ((?x38733 (+ (* (- (/ 1.0 3.0)) A_4) (* (/ 1.0 3.0) L_4) ?x3074 ?x1341 (* (/ 4.0 3.0) S_1) L_0)))
 (let (($x273617 (or $x86 (<= (+ ?x443 L_4 B ?x311 A_3 ?x1341 S_1 L_0) 0.0) (<= ?x38733 0.0) (<= (+ ?x443 L_4 A_2 ?x2006 ?x294 ?x5513 B ?x2007) 0.0))))
 (let ((?x1818 (* 3.0 L_3)))
 (let ((?x1286 (* (- 2.0) L_2)))
 (let ((?x1172 (* 2.0 A_2)))
 (let ((?x1817 (* (- 3.0) A_3)))
 (let (($x14344 (<= (+ S_5 ?x1817 ?x1172 ?x1286 ?x1818 ?x1716) 0.0)))
 (let (($x272543 (or $x76 (<= (+ ?x1721 ?x277 A_1 B ?x1817 L_3) 0.0) $x50502 $x110060 $x113473)))
 (let ((?x2620 (* (/ 1.0 2.0) B)))
 (let ((?x7704 (* (/ 1.0 2.0) L_3)))
 (let ((?x5537 (* (/ 3.0 2.0) S_1)))
 (let ((?x6490 (* (- (/ 1.0 2.0)) A_3)))
 (let (($x274390 (or $x76 (<= (+ ?x440 A_2 ?x1341 ?x294 S_1 L_3 B L_0) 0.0) (<= (+ ?x6490 ?x1341 ?x5537 ?x7704 ?x2620 L_0) 0.0))))
 (let (($x66315 (<= (+ (* (- (/ 3.0 2.0)) A_3) S_4 (* (/ 1.0 2.0) S_1) (* (/ 3.0 2.0) L_3) ?x1925) 0.0)))
 (let (($x16730 (<= (+ ?x1969 A_2 ?x294 S_4 ?x1406 ?x1686) 0.0)))
 (let (($x128623 (or $x86 (<= (+ ?x443 L_4 B ?x1341 (* 2.0 S_2) L_0) 0.0) (<= (+ ?x1683 ?x1678 ?x1686 ?x1710 ?x1711 ?x1341 S_2 L_0) 0.0))))
 (let (($x35876 (<= (+ A_4 ?x328 ?x437 L_2 ?x268 (* (- 2.0) S_2) (* 2.0 S_0)) 0.0)))
 (let (($x6855 (<= (+ ?x277 A_1 (* (- 1.0) S_2)) 0.0)))
 (let (($x117698 (<= 0.0 (+ ?x443 L_4 ?x1697 (* 3.0 A_2) ?x1187 ?x1148 (* (- 3.0) L_2)))))
 (let (($x79942 (= (+ ?x443 L_4 (* 3.0 A_2) ?x1187 ?x1148 (* (- 3.0) L_2) ?x1697) 0.0)))
 (let (($x26586 (<= (+ ?x1686 A_3 ?x1289 A_1 ?x311 ?x277 ?x1290) 0.0)))
 (let (($x273718 (or $x2391 (<= (+ (* (/ 2.0 5.0) S_5) ?x415 (* (/ 3.0 5.0) S_0)) 0.0) (<= (+ S_5 ?x1313 ?x1311 (* (- 4.0) S_3)) 0.0))))
 (let ((?x12627 (+ S_5 (* (/ 5.0 2.0) B) (* (- (/ 5.0 2.0)) A_2) (* (/ 3.0 2.0) S_0) (* (/ 5.0 2.0) L_2))))
 (let (($x106914 (or $x2391 (<= (+ S_5 L_3 ?x440 ?x1164 (* (- 2.0) S_3) ?x1065) 0.0) (<= (+ S_5 L_3 ?x440 ?x415 S_0) 0.0))))
 (let (($x101063 (or $x2391 (<= (+ L_3 ?x440 A_1 S_4 ?x415 ?x277) 0.0) (<= (+ L_3 ?x440 S_4 (* (- (/ 1.0 2.0)) S_3) (* (/ 1.0 2.0) S_0)) 0.0))))
 (let (($x44105 (<= (+ ?x1065 ?x1164 ?x1716 (* (- 3.0) A_2) S_4 (* 3.0 L_2)) 0.0)))
 (let (($x272968 (or $x86 (<= (+ ?x1683 ?x1678 B ?x1710 ?x1711 A_2 (* (- 1.0) S_1) ?x294) 0.0) (<= (+ ?x443 L_4 ?x268 ?x1172 (* (- 1.0) S_1) ?x1286) 0.0))))
 (let ((?x7270 (* (/ 1.0 2.0) L_2)))
 (let ((?x7150 (* (/ 1.0 2.0) S_0)))
 (let ((?x7279 (* (- (/ 1.0 2.0)) A_2)))
 (let (($x273747 (or $x66 (<= (+ ?x440 ?x437 A_1 S_4 L_3 ?x277 L_2 B) 0.0) (<= (+ ?x440 ?x7279 L_3 S_4 ?x7150 ?x7270 ?x2620) 0.0))))
 (let (($x105767 (or $x86 (<= (+ ?x1683 ?x1678 L_1 ?x435 ?x1686 (* 3.0 S_3)) 0.0))))
 (let (($x2241 (not $x76)))
 (let (($x270146 (or $x86 $x2241 (<= (+ ?x1683 ?x1678 L_1 ?x435 ?x268 ?x1718 (* (- 3.0) L_2)) 0.0))))
 (let ((?x2617 (* (- (/ 1.0 4.0)) B)))
 (let ((?x55777 (* (/ 3.0 4.0) S_0)))
 (let ((?x408 (* (- 1.0) S_2)))
 (let ((?x2592 (* (- (/ 1.0 4.0)) L_4)))
 (let ((?x53007 (* (/ 1.0 4.0) A_4)))
 (let (($x44484 (<= (+ ?x5459 ?x6107 (* 4.0 A_3) ?x1341 (* (- 4.0) L_3) ?x268 L_0) 0.0)))
 (let (($x265626 (or $x86 (not $x26586) (= (+ ?x443 L_4 A_3 A_2 ?x435 ?x311 L_1 ?x294) 0.0) (not (<= 0.0 (+ ?x443 L_4 ?x311 A_3 A_2 ?x435 ?x294 L_1))))))
 (let (($x127885 (or $x86 (<= (+ ?x443 L_4 B (* 2.0 S_2) (* (- 1.0) S_1)) 0.0) (<= (+ ?x1683 ?x1678 ?x1686 ?x1710 ?x1711 S_2 (* (- 1.0) S_1)) 0.0))))
 (let (($x274619 (or $x86 (<= (+ ?x1683 ?x1678 B ?x1710 ?x1711 A_2 ?x1341 ?x294 L_0) 0.0) (<= (+ ?x443 L_4 ?x268 ?x1172 ?x1341 ?x1286 L_0) 0.0))))
 (let ((?x27927 (* (- 5.0) L_2)))
 (let ((?x2102 (* (- 2.0) S_0)))
 (let ((?x24602 (* 5.0 A_2)))
 (let (($x273210 (or $x86 (<= (+ ?x5459 ?x6107 ?x1697 ?x24602 ?x2102 ?x27927) 0.0) (<= (+ ?x5459 ?x6107 ?x1686 ?x1717 ?x1718 A_2 ?x1312 ?x294) 0.0))))
 (let ((?x7650 (* (- 4.0) L_3)))
 (let ((?x402 (* (- 1.0) S_1)))
 (let ((?x7649 (* 4.0 A_3)))
 (let (($x112698 (<= 0.0 (+ ?x443 L_4 ?x311 A_3 A_2 ?x435 ?x294 L_1))))
 (let (($x28965 (<= (+ A_4 ?x328 B ?x1289 S_0 ?x1290) 0.0)))
 (let (($x56 (= L_1 L_0)))
 (let (($x268624 (or $x56 $x86 (<= (+ ?x1683 ?x1678 ?x435 (* 3.0 S_3) L_1 ?x1716) 0.0))))
 (let (($x271089 (or $x86 $x1688 (<= (+ (* 3.0 S_5) ?x2508 ?x2263 A_1 ?x277 ?x1716) 0.0) $x31429)))
 (let ((?x7200 (* (- (/ 1.0 2.0)) L_2)))
 (let ((?x7201 (* (/ 1.0 2.0) A_2)))
 (let ((?x2629 (* (- (/ 1.0 2.0)) B)))
 (let (($x109628 (<= 0.0 (+ ?x2629 ?x7201 ?x435 ?x7150 L_1 ?x7200))))
 (let (($x127343 (or $x66 (<= (+ S_5 ?x443 L_4 B ?x437 A_1 ?x277 L_2) 0.0) (not $x109628))))
 (let (($x100672 (or $x76 $x16730 (<= (+ ?x3256 (* (- (/ 4.0 3.0)) A_3) S_4 ?x5273 (* (/ 4.0 3.0) L_3)) 0.0) (<= (+ ?x277 A_1 ?x1716 ?x1817 (* 2.0 S_4) ?x1818) 0.0))))
 (let (($x52205 (<= (+ ?x2508 ?x2263 (* 5.0 A_3) ?x1312 (* (- 5.0) L_3) ?x268) 0.0)))
 (let (($x271030 (or $x56 $x86 (<= (+ ?x443 L_4 ?x1686 ?x311 A_3 ?x435 S_2 L_1) 0.0) (<= (+ ?x443 L_4 ?x1187 ?x921 ?x1148 ?x1716) 0.0))))
 (let (($x131540 (or $x66 (<= (+ ?x1721 ?x1819 ?x268 ?x1406 ?x1969 ?x437 S_0 L_2) 0.0) $x112698)))
 (let ((?x903 (+ L_2 ?x311)))
 (let (($x544 (<= 0.0 ?x903)))
 (let (($x95936 (<= (+ S_5 ?x443 L_4 ?x2620 ?x6490 (* (/ 1.0 2.0) S_1) ?x7704) 0.0)))
 (let (($x2387 (<= (+ S_5 ?x443 L_4 B ?x440 A_2 ?x294 L_3) 0.0)))
 (let (($x272724 (or $x544 (<= (+ A_4 ?x328 ?x1686 ?x1969 A_2 ?x294 ?x1406) 0.0) $x95936 (not (<= 0.0 (+ S_5 ?x1683 ?x1678 ?x268 ?x311 A_3))))))
 (let ((?x2683 (* (- (/ 3.0 4.0)) B)))
 (let ((?x422 (* (- 1.0) S_4)))
 (let ((?x2590 (* (- (/ 3.0 4.0)) L_4)))
 (let ((?x50512 (* (/ 3.0 4.0) A_4)))
 (let (($x10370 (<= (+ (* (/ 1.0 2.0) A_4) (* (- (/ 1.0 2.0)) L_4) ?x2629 ?x7201 ?x422 ?x7200) 0.0)))
 (let (($x1694 (<= (+ ?x311 A_3 ?x422) 0.0)))
 (let (($x133366 (or $x1694 $x10370 (<= (+ ?x50512 ?x2590 ?x422 ?x54729 ?x2683) 0.0) (<= (+ ?x1721 ?x1819 ?x277 A_1 ?x1697 (* (- 3.0) S_4)) 0.0))))
 (let ((?x5182 (* (/ 2.0 3.0) S_0)))
 (let (($x43577 (<= (+ S_5 (* (/ 5.0 3.0) B) (* (- (/ 5.0 3.0)) A_3) ?x5182 (* (/ 5.0 3.0) L_3)) 0.0)))
 (let (($x42328 (<= (+ (* 2.0 S_5) ?x1683 ?x1678 B ?x440 A_1 ?x277 L_3) 0.0)))
 (let (($x265922 (or $x544 $x2387 $x42328 (<= (+ S_5 ?x443 L_4 ?x3074 ?x43574 ?x5273 ?x43562) 0.0))))
 (let (($x64534 (<= (+ (* (/ 1.0 2.0) A_3) ?x415 (* (/ 1.0 2.0) S_1) (* (- (/ 1.0 2.0)) L_3) ?x2629) 0.0)))
 (let (($x266807 (or $x2391 (<= (+ ?x1065 ?x1164 S_4 (* (- 3.0) S_3)) 0.0) (<= (+ S_4 (* (- 2.0) S_3) S_0) 0.0))))
 (let (($x266153 (or $x6855 (<= (+ ?x437 L_2 S_4 (* (- 2.0) S_2) (* 2.0 S_0)) 0.0))))
 (let (($x116008 (<= (+ B ?x437 A_1 ?x277 L_2) (- 5.0))))
 (let (($x37789 (<= (+ (* (/ 2.0 3.0) A_4) (* (- (/ 2.0 3.0)) L_4) (* (- (/ 2.0 3.0)) B) ?x422 ?x32814) 0.0)))
 (let (($x82359 (or $x1694 (<= (+ ?x1341 (* (- (/ 1.0 2.0)) S_4) ?x5537 L_0) 0.0) (<= (+ A_2 ?x294 ?x1341 ?x422 S_1 L_0) 0.0))))
 (let (($x95768 (or $x1694 (<= (+ ?x422 ?x5513 ?x1312) 0.0) (<= (+ ?x1172 ?x1286 (* (- 2.0) S_4) S_1 ?x1312) 0.0))))
 (let ((?x1985 (* 3.0 L_1)))
 (let ((?x2316 (* 3.0 S_0)))
 (let ((?x1765 (* (- 3.0) A_1)))
 (let (($x588 (<= 0.0 (+ ?x277 L_0))))
 (let (($x7243 (<= (+ ?x268 ?x1817 (* 4.0 A_2) ?x1312 (* (- 4.0) L_2) ?x1818) 0.0)))
 (let (($x271215 (or $x2391 (<= (+ (* (/ 1.0 2.0) A_4) (* (- (/ 1.0 2.0)) L_4) ?x415 ?x7150 ?x2629) 0.0) (<= (+ A_4 ?x328 ?x1065 ?x1164 ?x268 (* (- 3.0) S_3)) 0.0))))
 (let ((?x2628 (* (- (/ 1.0 2.0)) L_1)))
 (let ((?x2836 (* (- (/ 1.0 2.0)) S_4)))
 (let ((?x2713 (* (/ 1.0 2.0) A_1)))
 (let (($x31175 (<= (+ S_5 ?x443 L_4 A_2 ?x422 ?x294) 0.0)))
 (let (($x268814 (or $x1694 (<= (+ S_5 ?x443 L_4 (* (- (/ 1.0 3.0)) S_4) ?x5273) 0.0) $x31175 (<= (+ S_5 ?x443 L_4 ?x2713 ?x2836 ?x2628) 0.0))))
 (let (($x17880 (<= (+ S_5 ?x1172 ?x1286 (* (- 3.0) S_4)) 0.0)))
 (let (($x87836 (or $x1694 (<= (+ S_5 ?x277 A_1 (* (- 2.0) S_4)) 0.0) (<= (+ (* (/ 3.0 5.0) S_5) ?x422 (* (/ 2.0 5.0) S_0)) 0.0) $x17880)))
 (let ((?x1820 (* (- 3.0) B)))
 (let ((?x2225 (* (- 4.0) L_1)))
 (let ((?x1458 (* 4.0 A_1)))
 (let (($x2494 (<= (+ ?x443 L_4 ?x1458 (* (- 3.0) A_0) ?x2225 ?x1820 (* 3.0 L_0)) 0.0)))
 (let (($x267004 (or $x86 (<= (+ ?x443 L_4 ?x311 A_3 A_1 ?x1341 ?x277 L_0) 0.0) $x2494 (<= (+ ?x443 L_4 A_2 ?x294 ?x268 ?x1164 ?x2006 ?x1065 ?x2007) 0.0))))
 (let (($x9889 (<= (+ B ?x1711 (* (- 3.0) A_2) S_0 (* 3.0 L_2) ?x1710) 0.0)))
 (let (($x564 (<= 0.0 (+ ?x440 ?x1172 ?x435 L_1 ?x1286 L_3 ?x268))))
 (let (($x267195 (or $x66 $x86 (= (+ ?x443 L_4 ?x1711 ?x437 L_2 ?x1710) 0.0) (not (<= 0.0 (+ ?x443 L_4 ?x1710 ?x1711 ?x437 L_2))))))
 (let (($x121073 (<= 0.0 (+ A_4 ?x328 (* (- (/ 3.0 2.0)) A_3) ?x2713 ?x2628 (* (/ 3.0 2.0) L_3)))))
 (let (($x272125 (or $x544 (= (+ ?x1683 ?x1678 ?x1718 ?x435 L_1 ?x1717) 0.0) $x113473 (not $x121073))))
 (let (($x89090 (or $x1694 (<= (+ (* (/ 1.0 2.0) L_1) (* (- (/ 1.0 2.0)) A_1) ?x2836 S_2) 0.0))))
 (let ((?x7358 (* (- (/ 3.0 2.0)) L_2)))
 (let ((?x7357 (* (/ 3.0 2.0) A_2)))
 (let (($x115235 (<= 0.0 (+ (* (- (/ 1.0 2.0)) A_4) (* (/ 1.0 2.0) L_4) ?x7357 ?x7358 ?x435 L_1))))
 (let (($x115236 (not $x115235)))
 (let (($x1720 (<= (+ ?x1683 ?x1678 ?x1716 ?x1717 ?x1718 ?x435 L_1) 0.0)))
 (let (($x1329 (= (+ ?x443 L_4 (* 3.0 A_2) ?x1187 ?x1148 (* (- 3.0) L_2)) 0.0)))
 (let (($x6713 (<= (+ ?x1820 (* 3.0 A_2) (* (- 2.0) S_4) ?x402 (* (- 3.0) L_2)) 0.0)))
 (let ((?x1076 (* (- 3.0) L_2)))
 (let ((?x2109 (* (- 2.0) S_2)))
 (let ((?x1231 (* 3.0 A_2)))
 (let (($x274734 (or $x86 (<= (+ ?x443 L_4 ?x311 A_3 A_2 ?x408 ?x294) 0.0) (<= (+ ?x443 L_4 ?x1697 ?x1231 ?x2109 ?x1076) 0.0))))
 (let (($x111197 (not (<= 0.0 (+ L_1 ?x294)))))
 (let (($x268899 (or $x56 $x86 (<= (+ ?x443 L_4 B ?x311 A_3 A_2 ?x435) 0.0) (<= (+ ?x443 L_4 ?x1231 ?x1187 ?x277) 0.0) $x111197)))
 (let (($x84756 (or $x2391 (<= (+ S_5 ?x443 L_4 A_1 ?x415 ?x277) 0.0) (<= (+ S_5 ?x443 L_4 (* (- (/ 1.0 2.0)) S_3) ?x7150) 0.0))))
 (let (($x267811 (or $x66 (<= (+ ?x1925 (* (- (/ 3.0 2.0)) A_2) S_3 ?x7150 (* (/ 3.0 2.0) L_2)) 0.0) (<= (+ ?x277 A_1 ?x1686 ?x1289 S_3 ?x1290) 0.0))))
 (let (($x113474 (not $x113473)))
 (let (($x983 (not $x56)))
 (let (($x269117 (or $x76 $x983 (<= (+ ?x1721 ?x1819 ?x1817 A_1 ?x1818 (* (- 1.0) L_0)) 0.0) $x113473)))
 (let (($x123887 (or $x76 (not $x564) (= (+ L_1 ?x435 ?x268 ?x440 ?x1172 ?x1286 L_3) 0.0))))
 (let (($x22638 (<= (+ (* (/ 1.0 2.0) A_4) (* (- (/ 1.0 2.0)) L_4) ?x7201 ?x7200 ?x440 L_3) 0.0)))
 (let (($x133096 (or $x76 (<= (+ ?x1686 ?x1817 A_1 (* 2.0 S_4) ?x277 ?x1818) 0.0) $x16730)))
 (let (($x73636 (or $x86 (<= (+ ?x443 L_4 ?x437 L_2 B (* 2.0 S_3)) 0.0))))
 (let ((?x2426 (* (- 5.0) L_1)))
 (let ((?x2422 (* (- 3.0) S_0)))
 (let ((?x2505 (* 5.0 A_1)))
 (let (($x266167 (or $x86 (<= (+ ?x1683 ?x1678 B ?x1710 ?x1711 A_1 ?x1312 ?x277) 0.0) (<= (+ ?x1683 ?x1678 ?x2505 ?x2422 ?x2426 ?x1820) 0.0) (<= (+ ?x443 L_4 A_2 ?x294 A_1 ?x1312 ?x277) 0.0))))
 (let (($x276013 (or (<= (+ ?x1721 ?x1819 A_1 (* (- 3.0) S_4) ?x277 ?x1820) 0.0) $x1694 $x10370)))
 (let (($x43560 (<= (+ (* (- (/ 1.0 3.0)) B) (* (/ 1.0 3.0) A_3) ?x408 ?x5182 (* (- (/ 1.0 3.0)) L_3)) 0.0)))
 (let (($x267310 (or $x1694 (<= (+ S_5 ?x443 L_4 ?x2836 (* (/ 1.0 2.0) S_1)) 0.0) $x31175)))
 (let (($x134417 (or $x544 $x2387 (<= (+ (* 2.0 S_5) ?x1683 ?x1678 ?x440 A_1 ?x277 L_3) 0.0))))
 (let (($x121061 (or $x2391 (<= (+ ?x277 A_1 ?x415) (- 5.0)) (<= (+ (* (- (/ 1.0 2.0)) S_3) ?x7150) (- 5.0)))))
 (let (($x57719 (or $x76 (<= (+ L_1 ?x435 B ?x440 (* 2.0 S_2) L_3) 0.0))))
 (let (($x48821 (or $x66 (<= (+ ?x1716 (* (- 3.0) A_2) S_4 ?x5513 (* 3.0 L_2)) 0.0))))
 (let (($x28781 (<= (+ A_4 ?x328 ?x1686 (* (- 3.0) A_2) ?x5513 (* 3.0 L_2)) 0.0)))
 (let (($x2843 (<= (+ A_4 (* (- (/ 3.0 2.0)) B) ?x2713 (* (- (/ 3.0 2.0)) S_4) ?x2628 ?x311) 0.0)))
 (let (($x131717 (or $x56 (<= (+ ?x437 L_2 ?x1686 ?x1187 S_4 (* 2.0 S_0) ?x1148) 0.0))))
 (let (($x133159 (or (<= (+ A_4 ?x328 ?x1697 L_3 ?x440 A_1 ?x415 ?x277) 0.0) $x2391)))
 (let (($x276134 (or $x2391 (<= (+ A_4 ?x328 ?x1164 (* (- 3.0) S_3) ?x1065 ?x1820) 0.0))))
 (let (($x131182 (or $x66 (<= (+ A_4 ?x328 ?x440 ?x437 A_1 L_3 ?x277 L_2 ?x268) 0.0))))
 (let ((?x37717 (* (/ 2.0 3.0) S_1)))
 (let ((?x3075 (* (- (/ 1.0 3.0)) B)))
 (let ((?x2751 (* (- (/ 1.0 3.0)) L_4)))
 (let ((?x3081 (* (/ 1.0 3.0) A_4)))
 (let (($x114069 (<= (+ A_2 ?x294 ?x422) (- 5.0))))
 (let (($x120109 (or $x1694 (<= (+ ?x2628 ?x2713 ?x2836) (- 5.0)) (<= (+ (* (- (/ 1.0 3.0)) S_4) ?x5273) (- 5.0)) $x114069)))
 (let (($x119762 (or $x86 $x1688 (<= (+ S_5 ?x4407 ?x4960 ?x1925 (* (/ 1.0 2.0) S_2)) 0.0))))
 (let (($x130699 (or $x2391 (<= (+ S_5 ?x1697 L_3 ?x440 ?x1164 (* (- 2.0) S_3) ?x1065) 0.0))))
 (let (($x134218 (or $x76 (<= (+ ?x1697 ?x440 ?x1311 (* (- 2.0) S_1) ?x1313 L_3) 0.0) (<= (+ ?x440 A_2 A_1 ?x294 ?x402 ?x277 L_3) 0.0))))
 (let (($x266500 (or $x86 $x1688 (<= (+ (* 2.0 S_5) ?x5459 ?x6107 ?x1686 A_2 ?x294) 0.0))))
 (let (($x49890 (or $x56 (<= (+ S_5 ?x1686 L_3 ?x440 ?x1187 (* 2.0 S_0) ?x1148) 0.0))))
 (let ((?x4218 (+ S_5 (* 5.0 B) (* (- 5.0) A_1) (* 4.0 S_0) (* 5.0 L_1))))
 (let (($x2524 (<= (+ A_4 ?x328 (* (- 4.0) A_1) ?x2316 (* 4.0 L_1) ?x1716) 0.0)))
 (let (($x130321 (or $x56 (<= (+ ?x3584 (* (- 4.0) A_1) S_4 ?x2316 (* 4.0 L_1)) 0.0))))
 (let (($x31423 (<= (+ ?x443 L_4 A_2 ?x294 ?x268 ?x1164 (* (- 2.0) S_1) ?x1065) 0.0)))
 (let (($x119480 (or $x86 (<= (+ ?x443 L_4 ?x1458 (* (- 3.0) S_1) ?x2225 ?x1820) 0.0) (<= (+ ?x443 L_4 ?x311 A_3 A_1 ?x402 ?x277) 0.0) $x31423)))
 (let (($x55552 (or $x66 $x86 (<= (+ ?x443 L_4 ?x1686 ?x437 (* 2.0 S_3) L_2) 0.0))))
 (let (($x43549 (<= (+ (* (- (/ 2.0 3.0)) B) (* (/ 2.0 3.0) A_3) ?x415 ?x5273 (* (- (/ 2.0 3.0)) L_3)) 0.0)))
 (let (($x10823 (<= (+ ?x2629 (* (/ 1.0 2.0) A_3) ?x2713 ?x415 ?x2628 (* (- (/ 1.0 2.0)) L_3)) 0.0)))
 (let (($x50704 (or $x56 $x76 (<= (+ ?x1686 ?x440 ?x435 (* 2.0 S_2) L_1 L_3) 0.0))))
 (let (($x134629 (or $x56 (<= (+ ?x1686 A_3 ?x1765 (* 2.0 S_0) ?x1985 ?x311) 0.0))))
 (let (($x276124 (or $x86 $x588 (not $x1720) (<= (+ ?x443 L_4 A_3 A_2 ?x435 ?x311 ?x294 L_1 B) 0.0))))
 (let (($x3387 (<= (+ S_5 ?x443 L_4 ?x2629 ?x2713 ?x2836 ?x2628) 0.0)))
 (let (($x133991 (or $x1694 $x3387 (<= 0.0 (+ ?x2629 ?x437 ?x2713 (* (/ 1.0 2.0) S_4) ?x2628 L_2)))))
 (let (($x2954 (<= (+ (* (- (/ 3.0 2.0)) B) (* (/ 3.0 2.0) A_1) ?x2836 ?x402 (* (- (/ 3.0 2.0)) L_1)) 0.0)))
 (let (($x276949 (or $x76 (<= (+ ?x1697 ?x440 ?x1311 ?x2006 ?x1313 L_3 ?x2007) 0.0) (<= (+ ?x440 A_2 A_1 ?x1341 ?x294 ?x277 L_3 L_0) 0.0))))
 (let (($x134648 (or (<= (+ S_5 ?x268 A_1 (* (- 2.0) S_4) ?x277) 0.0) $x1694 $x17880)))
 (let ((?x2504 (* (- (/ 3.0 2.0)) L_1)))
 (let ((?x2571 (* (/ 3.0 2.0) A_1)))
 (let ((?x2555 (* (- (/ 3.0 2.0)) B)))
 (let (($x272434 (or $x1694 (<= (+ ?x2555 ?x2571 ?x1341 ?x2836 ?x2504 L_0) 0.0) (<= (+ A_2 ?x294 ?x268 A_1 ?x1341 ?x422 ?x277 L_0) 0.0))))
 (let (($x135636 (or $x1694 (<= (+ ?x1697 ?x1164 ?x422 ?x1312 ?x1065) 0.0) (<= (+ ?x1172 ?x1286 ?x268 A_1 (* (- 2.0) S_4) ?x1312 ?x277) 0.0))))
 (let (($x30983 (<= (+ A_4 ?x328 ?x437 L_2 B ?x1187 (* 2.0 S_0) ?x1148) 0.0)))
 (let (($x129486 (or $x76 (<= (+ B ?x1969 ?x1172 A_1 ?x1286 ?x1312 ?x277 ?x1406) 0.0) (not (<= 0.0 (+ ?x1697 A_3 ?x1289 A_1 ?x277 ?x1290 ?x311))))))
 (let (($x276674 (or (<= (+ ?x1697 A_3 A_1 (* (- 2.0) S_3) ?x277 ?x311) 0.0) $x2391)))
 (let (($x30129 (or $x56 $x1694 (<= (+ ?x2620 (* (- (/ 1.0 2.0)) A_1) ?x2836 S_2 (* (/ 1.0 2.0) L_1)) 0.0))))
 (let ((?x6709 (* (- 4.0) L_2)))
 (let ((?x2290 (* (- 3.0) S_4)))
 (let ((?x6690 (* 4.0 A_2)))
 (let ((?x3656 (* (- 4.0) B)))
 (let (($x268010 (or $x1694 (<= (+ ?x1820 ?x1231 ?x1341 (* (- 2.0) S_4) ?x1076 L_0) 0.0))))
 (let (($x265816 (or $x1694 (<= (+ A_4 ?x328 ?x1697 A_2 (* (- 2.0) S_4) ?x294) 0.0))))
 (let (($x136263 (or $x1694 (<= (+ A_4 ?x1697 A_2 (* (- 2.0) S_4) ?x294 ?x311) 0.0) $x110060)))
 (let (($x1217 (<= (+ (* (- 3.0) A_2) ?x1164 S_4 ?x1065 (* 3.0 L_2) B) 0.0)))
 (let (($x4958 (<= (+ (* (/ 1.0 2.0) A_4) (* (- (/ 1.0 2.0)) L_4) ?x2629 ?x422 (* (/ 1.0 2.0) S_2)) 0.0)))
 (let (($x272380 (or $x66 $x983 (<= (+ A_3 ?x1289 A_1 ?x1290 ?x311 (* (- 1.0) L_0)) 0.0))))
 (let (($x108468 (<= 0.0 (+ ?x1697 A_3 ?x1289 A_1 ?x277 ?x1290 ?x311))))
 (let (($x1302 (<= (+ A_1 ?x408 ?x277 ?x268) 0.0)))
 (let (($x1296 (<= (+ A_2 ?x415 ?x294 ?x268) 0.0)))
 (let (($x128 (>= S_1 S_0)))
 (let (($x131 (>= S_2 S_1)))
 (let (($x134 (>= S_3 S_2)))
 (let (($x137 (>= S_4 S_3)))
 (let (($x142 (>= A_1 A_0)))
 (let (($x143 (>= A_2 A_1)))
 (let (($x144 (>= A_3 A_2)))
 (let (($x145 (>= A_4 A_3)))
 (and (<= (+ A_4 ?x328) S_5) $x145 $x144 $x143 $x142 $x137 $x134 $x131 $x128 (or (not $x588) $x56) $x1296 $x1302 (or $x66 (<= (+ ?x437 S_2 L_2 B) 0.0)) (or $x86 (<= (+ ?x443 L_4 B S_4) 0.0)) (or (not $x544) $x76) (or $x76 (<= (+ B ?x440 S_3 L_3) 0.0)) (or $x76 (<= (+ ?x268 ?x440 ?x1164 ?x1312 ?x1065 L_3) 0.0) $x108468) (or $x66 (<= (+ ?x437 A_1 ?x277 L_2) (- 5.0))) (or $x56 (<= (+ ?x435 S_1 L_1 B) 0.0)) (or $x2391 (<= (+ ?x1697 ?x1164 ?x1341 ?x415 ?x1065 L_0) 0.0)) (or $x2391 (<= (+ ?x1820 ?x1311 (* (- 2.0) S_3) ?x1312 ?x1313) 0.0)) (or $x2391 (<= (+ ?x1697 ?x1164 ?x415 ?x402 ?x1065) 0.0)) (or $x56 (<= (+ B ?x435 S_0 L_1) (- 5.0))) (or $x1694 (<= (+ ?x422 S_2) (- 5.0))) (<= (+ ?x268 A_3 ?x422 ?x311) 0.0) (or $x66 $x111197) (or $x56 (<= (+ A_2 ?x1187 S_0 ?x1148 ?x294 B) 0.0)) (or $x66 $x76 $x588 (= (+ ?x440 ?x1172 ?x435 L_1 ?x1286 L_3) 0.0)) (or $x66 (<= (+ ?x437 ?x1164 ?x1341 ?x1065 L_2 ?x268 L_0) 0.0)) (or $x66 (<= (+ ?x1289 A_1 S_3 ?x277 ?x1290 B) 0.0)) (or $x66 (<= (+ ?x437 ?x1164 ?x402 ?x1065 L_2 ?x268) 0.0)) (or $x56 (<= (+ ?x1172 ?x435 ?x422 L_1 ?x1286 ?x268) 0.0) $x1694) (or $x56 (<= (+ ?x1716 ?x1765 S_3 (* 2.0 S_0) ?x1985) 0.0)) (or $x86 $x110060) (or $x66 (<= 0.0 (+ ?x440 ?x1172 ?x435 L_1 ?x294)) $x2241) (<= (+ ?x268 A_2 ?x422 ?x294) (- 5.0)) (or $x76 (<= (+ ?x440 A_2 ?x294 L_3) (- 5.0))) $x272380 (or $x66 (<= (+ L_3 ?x440 ?x437 A_1 S_4 ?x277 L_2) 0.0)) (or $x2391 (<= (+ S_5 ?x1820 ?x1311 (* (- 4.0) S_3) ?x1313) 0.0)) (or $x2391 (<= (+ ?x1697 ?x1164 S_4 (* (- 3.0) S_3) ?x1065) 0.0)) (or $x2391 (<= (+ ?x415 S_1) (- 5.0))) (or $x56 (<= (+ S_5 ?x443 L_4 B ?x435 S_0 L_1) 0.0)) (or $x66 (<= (+ B ?x437 S_1 L_2) (- 5.0))) (<= (+ ?x268 A_1 ?x415 ?x277) (- 5.0)) (or $x1694 $x4958) (or $x1694 (<= (+ S_5 ?x1697 ?x1172 ?x2290 ?x1286) 0.0)) (or $x56 (<= (+ ?x1686 ?x1187 S_2 S_0 ?x1148) 0.0)) (or $x2391 (<= (+ S_5 ?x443 L_4 ?x268 A_1 ?x415 ?x277) 0.0)) (or $x76 (<= (+ ?x268 ?x440 ?x1172 ?x408 ?x1286 L_3) 0.0)) (or $x6855 (<= (+ ?x408 S_0) (- 5.0))) (or $x6855 (<= (+ S_5 ?x443 L_4 ?x408 S_0) 0.0)) (or $x66 (<= (+ ?x1289 ?x1311 ?x1312 ?x1313 ?x1290 ?x268) 0.0)) (or $x66 $x1217) (or $x1694 (<= (+ ?x1697 ?x1172 ?x422 ?x408 ?x1286) 0.0)) (or $x66 (<= (+ S_5 ?x443 L_4 ?x437 A_1 ?x277 L_2) 0.0)) (or $x6855 (<= (+ ?x2629 ?x7201 ?x408 ?x7150 ?x7200) 0.0)) $x136263 (or $x56 $x76 (<= (+ ?x440 ?x1172 ?x435 ?x277 L_3) 0.0) $x111197) $x265816 $x268010 (or $x1694 (<= (+ ?x3656 ?x6690 ?x2290 ?x1312 ?x6709) 0.0)) (or $x1694 (<= (+ ?x1341 (* (- 2.0) S_4) ?x921 L_0) 0.0)) $x30129 $x276674 (or $x66 (<= (+ S_5 L_3 ?x440 ?x1289 ?x1164 ?x1065 ?x1290) 0.0)) (or $x56 (<= (+ B L_3 ?x440 ?x435 S_4 S_0 L_1) 0.0)) (or $x56 (<= (+ A_4 ?x328 L_3 ?x440 ?x435 S_0 L_1) 0.0)) (or $x66 $x115235) $x129486 (or $x56 $x30983) (or $x66 (<= (+ B A_3 ?x1289 S_1 ?x1290 ?x311) 0.0)) $x135636 $x272434 (or $x2391 (<= (+ ?x1341 ?x415 ?x5513 L_0) 0.0)) (or $x1694 (<= (+ S_5 (* (- 2.0) S_4) S_1) 0.0) $x17880) $x134648 $x276949 (or $x2391 (<= (+ S_5 ?x443 L_4 ?x415 S_1) 0.0)) (or $x1694 (<= (+ ?x2836 (* (/ 1.0 2.0) S_1)) (- 5.0)) $x114069) (or $x2391 (<= (+ (* (- 2.0) S_3) (* 3.0 S_1) ?x1312) 0.0)) (or $x66 (<= (+ ?x1686 ?x1289 (* 3.0 S_1) ?x1312 ?x1290) 0.0)) (or $x1694 $x2954 (<= (+ A_2 ?x294 ?x268 A_1 ?x422 ?x402 ?x277) 0.0)) $x133991 (or $x2391 (<= (+ ?x268 L_3 ?x440 A_1 S_4 ?x415 ?x277) 0.0)) $x276124 (or $x56 (<= (+ ?x437 L_2 B ?x435 S_3 S_0 L_1) 0.0)) $x134629 (or $x56 (<= (+ A_3 ?x437 ?x435 L_2 S_0 L_1 ?x311) 0.0)) $x50704 (or $x2391 $x10823 $x43549) $x55552 (or $x66 (<= (+ ?x1686 ?x1289 S_3 S_1 ?x1290) 0.0)) $x119480 $x130321 (or $x56 $x2524) (or $x56 (<= ?x4218 0.0)) $x49890 $x266500 $x134218 $x130699 (or $x2391 (<= (+ L_3 ?x440 S_4 ?x415 S_1) 0.0)) $x119762 (or $x76 (<= (+ ?x1686 ?x1969 S_4 S_2 ?x1406) 0.0)) (or $x2391 (<= (+ S_4 (* (- 3.0) S_3) ?x5513) 0.0)) $x120109 (or $x1694 (<= (+ S_5 ?x2290 (* 2.0 S_2)) 0.0)) (or $x2391 (<= (+ ?x3081 ?x2751 ?x3075 ?x415 ?x37717) 0.0)) $x131182 $x276134 $x133159 $x131717 (or $x6855 (<= (+ S_5 L_3 ?x440 ?x2109 (* 2.0 S_0)) 0.0)) (or $x6855 (<= (+ (* (/ 1.0 5.0) S_5) ?x408 (* (/ 4.0 5.0) S_0)) 0.0)) (or $x1694 $x2843 $x10370 $x110060) (or $x1694 (<= (+ ?x2629 ?x2713 ?x2836 ?x2628) (- 5.0))) (or $x66 $x28781) $x48821 (or $x6855 (<= (+ A_3 ?x437 L_2 ?x408 S_0 ?x311 ?x268) 0.0)) $x57719 (or $x1694 (<= (+ S_5 ?x443 L_4 ?x422 S_2) 0.0)) $x121061 $x134417 (or $x76 (<= (+ S_5 B ?x1817 ?x1172 ?x1286 ?x1818) 0.0)) $x267310 (or $x6855 $x43560) (or $x544 (<= (+ ?x268 ?x1969 ?x1231 ?x1341 ?x1076 ?x1406 L_0) 0.0)) (or $x1694 (<= (+ (* (- 2.0) S_4) ?x921 ?x402) 0.0)) $x276013 $x266167 (or $x86 $x2241 (<= (+ ?x443 L_4 ?x437 ?x294 ?x268 ?x1711) 0.0)) (or $x76 (<= (+ ?x440 A_1 ?x277 L_3) (- 10.0))) (or $x76 (<= (+ B ?x1969 A_2 S_4 ?x294 ?x1406) 0.0)) (or $x76 (<= (+ A_4 B ?x1969 S_2 L_3) 0.0) $x110060) (or $x76 (<= 0.0 (+ ?x1683 ?x1718 ?x435 L_1 ?x311)) $x110060 $x113473) (or $x86 (<= (+ S_5 ?x1683 ?x1678 ?x1686 S_3) 0.0)) (or $x6855 (<= (+ S_5 ?x437 L_2 (* (- 3.0) S_2) ?x2316) 0.0)) $x73636 (or $x86 (<= (+ S_5 ?x1683 ?x1678 A_3 ?x311 B) 0.0)) $x133096 (or $x86 (= (+ ?x443 L_4 ?x1711 ?x437 L_2 ?x1710 ?x268) 0.0) $x113474) (or $x76 $x22638) $x123887 (or $x6855 (<= (+ S_4 (* (- 4.0) S_2) ?x2316) 0.0)) (or $x66 (<= (+ A_4 ?x328 L_3 ?x440 ?x437 L_2 S_1) 0.0)) $x269117 (or $x86 $x564 $x588 $x1329 $x115236) (or $x6855 (<= (+ L_3 ?x440 S_4 ?x408 S_0) 0.0)) (or $x66 (<= (+ S_5 ?x1321 ?x1311 ?x1313 ?x1322 B) 0.0)) (or $x1694 $x3387 $x31175) (or $x86 (<= (+ ?x1231 ?x1076 ?x1686 ?x1969 ?x1341 ?x1406 L_0) 0.0) $x113474) (or $x86 (<= (+ ?x1231 ?x1076 ?x1686 ?x1969 ?x402 ?x1406) 0.0) $x113474) (or $x86 (<= (+ ?x443 L_4 ?x311 A_3 A_2 ?x435) 0.0) $x113474) (or $x66 (not (<= (- 5.0) (+ ?x435 S_0 L_1))) $x116008) (or $x56 $x86 $x121073) (or $x1694 (<= (+ L_1 ?x435 ?x1697 ?x1172 ?x422 ?x1286) 0.0)) $x267811 (or $x66 (<= (+ S_5 ?x443 L_4 B ?x437 S_1 L_2) 0.0)) (or $x544 (<= (+ ?x268 ?x1969 ?x1231 ?x402 ?x1076 ?x1406) 0.0)) (or $x66 (<= (+ B ?x437 ?x1341 ?x5513 L_2 L_0) 0.0)) (or $x6855 (<= (+ A_4 ?x328 ?x440 L_3 ?x408 S_0 ?x268) 0.0)) $x84756 $x268899 $x274734 (or $x1694 $x6713) (or $x56 $x86 $x1329 $x1720 $x115236) (or $x76 (<= (+ B ?x440 S_2 L_3) (- 5.0))) (or $x76 (<= (+ S_5 ?x1716 ?x1817 (* 2.0 S_2) ?x1818) 0.0)) (or $x86 (<= (+ ?x443 L_4 ?x1711 ?x415 ?x1710 ?x268) 0.0)) (or $x76 (<= (+ S_5 B ?x1969 A_1 ?x277 ?x1406) 0.0) $x14344) (or $x2391 (<= (+ S_5 (* (- 4.0) S_3) (* 3.0 S_1)) 0.0)) (or $x76 $x110953 (<= (+ ?x6490 (* (/ 1.0 2.0) S_1) ?x7704 ?x2620) (- 5.0))) $x89090 $x272125 $x267195 (or $x66 $x564 $x9889) (or $x1694 (<= (+ ?x2290 (* 4.0 S_2) ?x1312) 0.0)) $x267004 (or $x544 (<= (+ S_5 ?x443 L_4 ?x440 A_2 ?x294 L_3) 0.0)) $x87836 $x268814 $x271215 (or $x76 $x7243) (or $x66 (<= (+ S_5 ?x3584 ?x1321 (* 3.0 S_1) ?x1322) 0.0)) (or $x1694 (<= (+ S_5 ?x443 L_4 ?x268 A_2 ?x422 ?x294) 0.0)) (or $x588 (<= (+ S_5 ?x437 L_2 ?x1716 ?x1765 ?x2316 ?x1985) 0.0)) $x95768 $x82359 (or $x1694 $x10370 $x37789) (or $x66 (<= (+ ?x2620 ?x7279 ?x7150 ?x7270) (- 5.0)) $x116008) (or $x6855 (<= (+ (* (/ 1.0 3.0) S_3) ?x408 ?x5182) 0.0)) $x266153 $x266807 (or $x2391 $x64534) (or $x66 $x109628 (<= (+ S_5 ?x443 L_4 ?x2620 ?x7279 ?x7150 ?x7270) 0.0)) $x265922 (or $x76 $x14344 $x43577 (<= (+ S_5 ?x277 A_1 ?x1686 ?x1969 ?x1406) 0.0)) (or $x6855 (<= (+ ?x437 L_2 S_3 ?x408 S_0) 0.0)) $x133366 (or $x86 (<= (+ ?x5459 ?x6107 ?x1716 (* 4.0 S_3) ?x402) 0.0)) (or $x86 (<= (+ ?x1683 ?x1678 ?x1686 (* 3.0 S_3) ?x408) 0.0)) (or $x2391 (<= (+ A_4 ?x328 ?x268 L_3 ?x440 ?x415 S_1) 0.0)) $x272724 (or $x544 $x2387 $x95936) (or $x544 (<= (+ S_5 ?x443 L_4 B ?x440 S_2 L_3) 0.0)) $x131540 $x271030 (or $x86 $x52205) $x100672 $x127343 (or $x76 (<= (+ A_4 ?x328 ?x1969 S_2 ?x1406 B) 0.0)) (or $x76 $x113473 (<= (+ ?x1721 ?x1819 ?x1817 S_1 ?x1818 B) 0.0)) $x271089 $x268624 (or $x66 $x28965 $x112698) (or $x66 (<= (+ B L_3 ?x440 ?x437 S_4 S_1 L_2) 0.0)) (or $x86 (<= (+ ?x5459 ?x6107 ?x7649 ?x402 ?x7650 ?x268) 0.0)) (or $x66 $x28965 $x117698) $x273210 (or $x76 (<= (+ ?x1716 ?x1817 (* 4.0 S_2) ?x1312 ?x1818) 0.0)) (or $x66 (<= (+ S_5 ?x1686 L_3 ?x440 ?x1289 ?x5513 ?x1290) 0.0)) $x274619 $x127885 $x265626 (or $x86 $x44484) (or $x6855 (<= (+ ?x53007 ?x2592 ?x408 ?x55777 ?x2617) 0.0)) $x270146 $x105767 $x273747 $x272968 (or $x66 (<= (+ ?x1686 ?x1289 S_4 S_0 ?x1290) 0.0) $x44105) $x101063 $x106914 (or $x66 (<= ?x12627 0.0) $x42842) (or $x86 (<= (+ ?x1683 ?x1678 ?x1718 ?x408 ?x1717 ?x268) 0.0)) (or $x2391 (<= (+ S_5 L_3 ?x440 (* (- 2.0) S_3) ?x5513) 0.0)) (or $x76 (<= (+ ?x1686 ?x1969 ?x1341 ?x921 ?x1406 L_0) 0.0)) $x273718 (or $x86 $x26586 $x79942 (not $x117698)) (or $x6855 $x35876) $x128623 (or $x76 (<= (+ ?x1686 ?x1969 ?x921 ?x402 ?x1406) 0.0)) (or $x76 $x16730 $x66315) $x274390 $x272543 (or $x76 $x14344 (<= (+ S_5 ?x1969 S_1 ?x1406 ?x1686) 0.0)) $x273617 $x274470 (or $x66 $x42842 $x75990) $x117459 $x109663 $x132940 (or $x76 $x60100 (<= (+ ?x440 ?x5513 ?x1312 L_3 B) 0.0)) (or $x76 $x50502 $x113473 $x123445) $x267255 $x129204 (or $x2391 $x9069 (<= (+ ?x1721 ?x1819 ?x1697 ?x1406 ?x1969 ?x415 S_0) 0.0)) (or $x86 $x1688 $x31429 $x54589 $x71162) (or $x86 $x68640) (or $x86 (<= (+ ?x2508 ?x2263 ?x3584 (* 5.0 S_3) ?x1312) 0.0)) $x270072 $x129419 $x781 $x39 (not (>= (+ S_5 L_4 (* (- 1.0) A_5)) 0.0)) (<= (+ ?x1341 S_0 L_0) 0.0) (<= (+ L_3 ?x440 S_3) 0.0) (<= (+ ?x443 L_4 S_4) 0.0) (<= (+ ?x437 L_2 S_2) 0.0) (<= (+ L_1 ?x435 S_1) 0.0))))))))))))))))))))))))))))))))))))))))))))))))))))))))))))))))))))))))))))))))))))))))))))))))))))))))))))))))))))))))))))))))))))))))))))))))))))))))))))))))))))))))))))))))))))))))))))))))))))))))))))))))))))))))))))))))))))))))))))))))))))))))))))))))))))))))))))))))))))))))))))))))))))))))))
(check-sat)
